max: 4.0v1 + 2.0v2 + 6.0v3 + 2.0v5 + 4.0v6  - 2.0v7 + 3.0v9  - 3.0v10 + 2.0v11  - 1.0v12  - 1.0v13 + 2.0v14  - 3.0v15  - 1.0v16  - 4.0v18 + 6.0v19  - 1.0v20  - 1.0v21 + 2.0v22 + 7.0v23 + 4.0v24  - 2.0v25 + 5.0v26  - 4.0v27 + 4.0v29 + 6.0v31  - 2.0v32  - 3.0v33  - 1.0v34  - 6.0v35  - 2.0v36  - 1.0v37 + 8.0v38 + 1.0v39  - 2.0v40  - 8.0v41  - 1.0v42  - 2.0v43 + 6.0v44 + 3.0v45 + 5.0v46 + 2.0v47 + 7.0v48;

v42 + v28 + v33 >= 0;
v1 + 1 - v12 + v2 >= 0;
1 - v15 + 1 - v38 + 1 - v12 >= 0;
1 - v40 + v8 + v9 >= 0;
v32 + v14 + v30 >= 0;
v38 + v47 + 1 - v21 >= 0;
1 - v7 + 1 - v14 + 1 - v28 >= 0;
v44 + v27 + 1 - v3 >= 0;
1 - v15 + 1 - v26 + v42 >= 0;
1 - v22 + 1 - v45 + v36 >= 0;
1 - v14 + v47 + v1 >= 0;
1 - v10 + 1 - v8 + v17 >= 0;
1 - v27 + v31 + 1 - v33 >= 0;
v12 + v19 + v26 >= 0;
1 - v10 + v31 + v1 >= 0;
1 - v49 + v19 + 1 - v48 >= 0;
v2 + 1 - v12 + 1 - v8 >= 0;
v23 + 1 - v25 + v5 >= 0;
v14 + v48 + 1 - v30 >= 0;
1 - v27 + 1 - v37 + v21 >= 0;
v11 + 1 - v36 + v18 >= 0;
v25 + 1 - v42 + v37 >= 0;
1 - v47 + 1 - v10 + v14 >= 0;
1 - v14 + 1 - v36 + 1 - v49 >= 0;
1 - v8 + v28 + v21 >= 0;
v47 + 1 - v31 + 1 - v44 >= 0;
v34 + 1 - v19 + v20 >= 0;
1 - v29 + 1 - v38 + v16 >= 0;
v12 + 1 - v1 + 1 - v40 >= 0;
v44 + v38 + 1 - v9 >= 0;
v23 + 1 - v13 + v9 >= 0;
v45 + 1 - v11 + v21 >= 0;
1 - v20 + v9 + 1 - v50 >= 0;
1 - v39 + v14 + v38 >= 0;
v9 + 1 - v16 + v6 >= 0;
v46 + v3 + v34 >= 0;
1 - v7 + 1 - v14 + v21 >= 0;
1 - v40 + 1 - v47 + v10 >= 0;
v27 + 1 - v20 + 1 - v25 >= 0;
1 - v32 + v6 + 1 - v13 >= 0;
1 - v9 + v19 + v45 >= 0;
v3 + v30 + v27 >= 0;
1 - v25 + 1 - v47 + 1 - v1 >= 0;
v46 + 1 - v13 + 1 - v1 >= 0;
1 - v18 + 1 - v8 + 1 - v4 >= 0;
v23 + 1 - v5 + v45 >= 0;
v31 + v50 + v48 >= 0;
v11 + 1 - v48 + 1 - v50 >= 0;
1 - v42 + 1 - v28 + v48 >= 0;
1 - v41 + 1 - v16 + 1 - v32 >= 0;
v21 + 1 - v19 + 1 - v31 >= 0;
1 - v33 + v17 + v27 >= 0;
1 - v34 + v48 + 1 - v45 >= 0;
v8 + 1 - v17 + v29 >= 0;
1 - v21 + 1 - v14 + 1 - v17 >= 0;
v29 + 1 - v49 + 1 - v21 >= 0;
1 - v33 + 1 - v11 + 1 - v10 >= 0;
v31 + 1 - v28 + v38 >= 0;
v18 + v13 + v3 >= 0;
v44 + v24 + v36 >= 0;
v45 + v50 + 1 - v18 >= 0;
v1 + v38 + v10 >= 0;
1 - v4 + v1 + 1 - v32 >= 0;
v15 + v28 + 1 - v42 >= 0;
v39 + v44 + 1 - v18 >= 0;
v43 + v47 + 1 - v39 >= 0;
v9 + v12 + v32 >= 0;
v23 + v26 + v3 >= 0;
v34 + 1 - v30 + 1 - v41 >= 0;
1 - v19 + v36 + 1 - v34 >= 0;
v27 + v3 + 1 - v34 >= 0;
1 - v9 + 1 - v22 + 1 - v7 >= 0;
1 - v41 + v13 + v4 >= 0;
v6 + 1 - v50 + 1 - v46 >= 0;
1 - v44 + 1 - v32 + v20 >= 0;
v6 + v43 + 1 - v40 >= 0;
v29 + v27 + v41 >= 0;
v9 + 1 - v28 + 1 - v23 >= 0;
v7 + v44 + 1 - v42 >= 0;
v39 + 1 - v11 + v19 >= 0;
v14 + v47 + v2 >= 0;
1 - v37 + v46 + 1 - v33 >= 0;
v46 + v22 + v26 >= 0;
v10 + 1 - v29 + 1 - v14 >= 0;
v38 + 1 - v19 + 1 - v42 >= 0;
v15 + 1 - v41 + 1 - v29 >= 0;
v22 + v31 + v42 >= 0;
1 - v3 + v4 + 1 - v27 >= 0;
v49 + 1 - v31 + v29 >= 0;
1 - v43 + v19 + v28 >= 0;
1 - v17 + v38 + 1 - v46 >= 0;
1 - v42 + 1 - v25 + 1 - v21 >= 0;
v39 + v32 + v31 >= 0;
1 - v15 + v9 + v32 >= 0;
1 - v2 + 1 - v13 + v31 >= 0;
1 - v35 + v15 + 1 - v43 >= 0;
1 - v20 + 1 - v2 + 1 - v21 >= 0;
1 - v18 + 1 - v25 + 1 - v32 >= 0;
1 - v50 + v5 + 1 - v32 >= 0;
1 - v50 + 1 - v32 + 1 - v26 >= 0;
1 - v14 + v44 + v22 >= 0;
v13 + 1 - v6 + 1 - v38 >= 0;
v20 + v16 + v19 >= 0;
1 - v18 + v11 + 1 - v9 >= 0;
v45 + 1 - v8 + 1 - v10 >= 0;
v50 + 1 - v1 + 1 - v33 >= 0;
1 - v39 + v6 + 1 - v41 >= 0;
1 - v14 + 1 - v28 + v48 >= 0;
1 - v41 + v13 + v14 >= 0;
1 - v27 + 1 - v8 + v30 >= 0;
v26 + 1 - v27 + v17 >= 0;
1 - v44 + v37 + v15 >= 0;
v17 + v26 + 1 - v50 >= 0;
1 - v17 + 1 - v48 + v8 >= 0;
1 - v1 + v23 + v28 >= 0;
v46 + 1 - v35 + 1 - v31 >= 0;
1 - v21 + v36 + 1 - v15 >= 0;
v9 + 1 - v37 + v4 >= 0;
v3 + 1 - v16 + v8 >= 0;
v31 + 1 - v46 + 1 - v26 >= 0;
1 - v13 + 1 - v21 + v19 >= 0;
1 - v22 + 1 - v4 + v47 >= 0;
v14 + v48 + v3 >= 0;
1 - v28 + v9 + v18 >= 0;
v38 + v50 + 1 - v9 >= 0;
v49 + v20 + 1 - v5 >= 0;
v28 + v35 + 1 - v40 >= 0;
1 - v41 + v35 + 1 - v27 >= 0;
v46 + v29 + v40 >= 0;
1 - v27 + v2 + v8 >= 0;
v19 + 1 - v13 + 1 - v35 >= 0;
1 - v10 + 1 - v8 + v32 >= 0;
v29 + v24 + 1 - v37 >= 0;
1 - v36 + v12 + 1 - v17 >= 0;
1 - v34 + 1 - v1 + 1 - v33 >= 0;
1 - v6 + 1 - v4 + 1 - v10 >= 0;
v38 + 1 - v36 + 1 - v48 >= 0;
v23 + v14 + v4 >= 0;
v47 + 1 - v5 + v31 >= 0;
1 - v45 + v13 + 1 - v7 >= 0;
1 - v24 + 1 - v9 + v46 >= 0;
v24 + v38 + 1 - v8 >= 0;
v1 + 1 - v30 + v7 >= 0;
v24 + 1 - v35 + v29 >= 0;
v11 + v43 + v22 >= 0;
v9 + 1 - v43 + 1 - v34 >= 0;
1 - v26 + v49 + 1 - v20 >= 0;
1 - v27 + v21 + 1 - v7 >= 0;
1 - v8 + v48 + 1 - v30 >= 0;
v45 + 1 - v13 + 1 - v21 >= 0;
v41 + 1 - v38 + v31 >= 0;
1 - v7 + 1 - v16 + v5 >= 0;
v4 + v25 + v44 >= 0;
1 - v5 + v16 + v17 >= 0;
1 - v12 + v47 + v31 >= 0;
v21 + 1 - v4 + 1 - v47 >= 0;
v8 + v35 + v3 >= 0;
1 - v36 + 1 - v16 + 1 - v27 >= 0;
v48 + v30 + v50 >= 0;
v33 + v25 + v48 >= 0;
v24 + 1 - v27 + 1 - v15 >= 0;
v8 + 1 - v36 + 1 - v27 >= 0;
1 - v12 + v34 + 1 - v3 >= 0;
v22 + v11 + v8 >= 0;
v22 + v8 + v46 >= 0;
1 - v31 + v44 + v28 >= 0;
v37 + 1 - v21 + 1 - v41 >= 0;
v50 + 1 - v43 + 1 - v22 >= 0;
1 - v31 + v3 + v46 >= 0;
v8 + v45 + 1 - v28 >= 0;
1 - v4 + 1 - v45 + v42 >= 0;
1 - v37 + v26 + v28 >= 0;
1 - v39 + 1 - v49 + v38 >= 0;
v21 + v32 + 1 - v18 >= 0;
v16 + v49 + v19 >= 0;
1 - v8 + v5 + 1 - v4 >= 0;
v23 + 1 - v35 + 1 - v17 >= 0;
1 - v49 + v39 + 1 - v20 >= 0;
v10 + v49 + 1 - v9 >= 0;
v33 + v2 + v12 >= 0;
v23 + 1 - v29 + v26 >= 0;
v43 + v22 + v33 >= 0;
1 - v2 + v1 + 1 - v35 >= 0;
v1 + v17 + 1 - v35 >= 0;
v1 + 1 - v22 + v42 >= 0;
1 - v24 + 1 - v10 + 1 - v44 >= 0;
1 - v15 + v22 + v3 >= 0;
1 - v12 + v27 + 1 - v15 >= 0;
v22 + 1 - v18 + v1 >= 0;
1 - v36 + 1 - v35 + 1 - v42 >= 0;
1 - v43 + v10 + v38 >= 0;
v18 + v24 + v39 >= 0;
1 - v35 + 1 - v32 + v41 >= 0;
1 - v33 + v49 + v26 >= 0;
1 - v3 + v39 + 1 - v46 >= 0;
v23 + 1 - v8 + 1 - v41 >= 0;
v28 + 1 - v12 + 1 - v22 >= 0;
v31 + v17 + 1 - v23 >= 0;
v29 + 1 - v49 + v48 >= 0;
v15 + 1 - v35 + v40 >= 0;
1 - v41 + v2 + v14 >= 0;
v29 + v40 + v19 >= 0;
v42 + v37 + 1 - v17 >= 0;
v14 + 1 - v36 + v31 >= 0;
v13 + v4 + 1 - v47 >= 0;
v8 + 1 - v3 + 1 - v28 >= 0;
1 - v28 + v12 + 1 - v30 >= 0;
v48 + v3 + 1 - v22 >= 0;
1 - v47 + 1 - v31 + v14 >= 0;
1 - v41 + v5 + v7 >= 0;
1 - v13 + 1 - v14 + v22 >= 0;
v30 + v13 + 1 - v15 >= 0;
v44 + v7 + 1 - v29 >= 0;
v44 + 1 - v18 + v26 >= 0;
v11 + v36 + 1 - v22 >= 0;
v36 + v35 + 1 - v43 >= 0;
1 - v11 + v4 + 1 - v39 >= 0;
1 - v2 + v6 + v5 >= 0;
0 <= v1 <= 1;
0 <= v2 <= 1;
0 <= v3 <= 1;
0 <= v4 <= 1;
0 <= v5 <= 1;
0 <= v6 <= 1;
0 <= v7 <= 1;
0 <= v8 <= 1;
0 <= v9 <= 1;
0 <= v10 <= 1;
0 <= v11 <= 1;
0 <= v12 <= 1;
0 <= v13 <= 1;
0 <= v14 <= 1;
0 <= v15 <= 1;
0 <= v16 <= 1;
0 <= v17 <= 1;
0 <= v18 <= 1;
0 <= v19 <= 1;
0 <= v20 <= 1;
0 <= v21 <= 1;
0 <= v22 <= 1;
0 <= v23 <= 1;
0 <= v24 <= 1;
0 <= v25 <= 1;
0 <= v26 <= 1;
0 <= v27 <= 1;
0 <= v28 <= 1;
0 <= v29 <= 1;
0 <= v30 <= 1;
0 <= v31 <= 1;
0 <= v32 <= 1;
0 <= v33 <= 1;
0 <= v34 <= 1;
0 <= v35 <= 1;
0 <= v36 <= 1;
0 <= v37 <= 1;
0 <= v38 <= 1;
0 <= v39 <= 1;
0 <= v40 <= 1;
0 <= v41 <= 1;
0 <= v42 <= 1;
0 <= v43 <= 1;
0 <= v44 <= 1;
0 <= v45 <= 1;
0 <= v46 <= 1;
0 <= v47 <= 1;
0 <= v48 <= 1;
0 <= v49 <= 1;
0 <= v50 <= 1;
